results_rootrelaxation/bin018_050_001.srr.sol
solution status: optimal solution found
objective value:                                    0
_var323_                            0.222206034638086 	(obj:0)
_var1257_                          0.0766700622396399 	(obj:0)
_var1263_                          0.0923656283767811 	(obj:0)
_var2789_                          0.0957742239671717 	(obj:0)
_var2794_                          0.0810646944943103 	(obj:0)
_var2796_                           0.170018315567189 	(obj:0)
_var2797_                           0.326725001195046 	(obj:0)
_var2798_                             0.1614641175891 	(obj:0)
_var2808_                           0.219327796693568 	(obj:0)
_var2809_                           0.426647618076027 	(obj:0)
_var2810_                         0.000613572793295186 	(obj:0)
_var2811_                           0.288507259773911 	(obj:0)
_var2813_                         0.00391885004650762 	(obj:0)
_var2815_                         0.00629252048419404 	(obj:0)
_var2819_                          0.0225226677725621 	(obj:0)
_var2836_                           0.309862926402413 	(obj:0)
_var2839_                          0.0909182080755213 	(obj:0)
_var2841_                           0.103072421813561 	(obj:0)
_var2845_                           0.221544419094486 	(obj:0)
_var2847_                            0.13451899125898 	(obj:0)
_var2849_                           0.261346688116572 	(obj:0)
_var2855_                          0.0205481727649564 	(obj:0)
_var2856_                           0.106000094665457 	(obj:0)
_var2857_                           0.147400971801141 	(obj:0)
_var2861_                           0.155815470646644 	(obj:0)
_var2864_                          0.0401401179825855 	(obj:0)
_var2867_                           0.109613539499306 	(obj:0)
_var2871_                           0.104294910979331 	(obj:0)
_var2873_                          0.0477401333609721 	(obj:0)
_var2875_                          0.0744545129788444 	(obj:0)
_var2877_                           0.112486172617564 	(obj:0)
_var2878_                           0.142305206292957 	(obj:0)
_var2880_                           0.152109115517938 	(obj:0)
_var2881_                           0.364962576185175 	(obj:0)
_var2882_                           0.180138106636682 	(obj:0)
_var2883_                           0.022639712797507 	(obj:0)
_var2885_                            0.18653730085682 	(obj:0)
_var2889_                              0.142069757791 	(obj:0)
_var2890_                          0.0128898930894201 	(obj:0)
_var2891_                           0.249548649503421 	(obj:0)
_var2892_                          0.0842680379588521 	(obj:0)
_var2896_                          0.0230178494515657 	(obj:0)
_var2897_                           0.149447152733531 	(obj:0)
_var2900_                           0.395853521633356 	(obj:0)
_var2901_                           0.177393505738358 	(obj:0)
_var2906_                            0.10244644089716 	(obj:0)
_var2909_                          0.0202356338241828 	(obj:0)
_var2910_                           0.140563290752454 	(obj:0)
_var2912_                          0.0875243157299034 	(obj:0)
_var2915_                         0.00893756086352525 	(obj:0)
_var2916_                           0.173769877274704 	(obj:0)
_var2918_                          0.0393544457613605 	(obj:0)
_var2919_                           0.232341925867632 	(obj:0)
_var2920_                           0.269997625533051 	(obj:0)
_var2921_                          0.0554647160360854 	(obj:0)
_var2922_                          0.0397503160438336 	(obj:0)
_var2923_                         0.000552746068106898 	(obj:0)
_var2924_                           0.274260912684765 	(obj:0)
_var2925_                           0.249249984271569 	(obj:0)
_var2927_                          0.0916581322938869 	(obj:0)
_var2930_                         0.000560188230386421 	(obj:0)
_var2931_                           0.126436375944411 	(obj:0)
_var2937_                            0.21473940746475 	(obj:0)
_var2938_                           0.119905262448485 	(obj:0)
_var2939_                          0.0729438944756675 	(obj:0)
_var2941_                          0.0853421707147154 	(obj:0)
_var2942_                           0.114054066400404 	(obj:0)
_var2943_                           0.146199513810341 	(obj:0)
_var2944_                           0.140614038477745 	(obj:0)
_var2946_                            0.11925529247568 	(obj:0)
_var2948_                          0.0220971336816796 	(obj:0)
_var2950_                          0.0138500955672494 	(obj:0)
_var2952_                           0.281202639155752 	(obj:0)
_var2953_                            0.21580015641772 	(obj:0)
_var2954_                         0.00996038330810507 	(obj:0)
_var2955_                          0.0743313122799248 	(obj:0)
_var2956_                           0.157679268391815 	(obj:0)
_var2957_                           0.185596743719466 	(obj:0)
_var2960_                           0.122446998829599 	(obj:0)
_var2963_                           0.172073476995518 	(obj:0)
_var2965_                           0.229106241123041 	(obj:0)
_var2969_                           0.153670209783874 	(obj:0)
_var2972_                          0.0538584876466299 	(obj:0)
_var2974_                           0.164867126637465 	(obj:0)
_var2977_                           0.363460881236589 	(obj:0)
_var2980_                           0.178774172232754 	(obj:0)
_var2983_                           0.184649847442189 	(obj:0)
_var2985_                          0.0431825889027596 	(obj:0)
_var2991_                          0.0262977100056394 	(obj:0)
_var2993_                          0.0394313629452307 	(obj:0)
_var2994_                          0.0376574199112675 	(obj:0)
_var2995_                           0.142936311883745 	(obj:0)
_var2996_                            0.13849684104555 	(obj:0)
_var2999_                           0.105303665253133 	(obj:0)
_var3001_                            0.16258740769489 	(obj:0)
_var3002_                          0.0631901240490363 	(obj:0)
_var3004_                          0.0608400095374909 	(obj:0)
_var3005_                           0.178048637589679 	(obj:0)
_var3006_                          0.0203556092896519 	(obj:0)
_var3007_                           0.156664093595493 	(obj:0)
_var3008_                          0.0635138737916916 	(obj:0)
_var3011_                          0.0310534687273434 	(obj:0)
_var3012_                           0.125410714279605 	(obj:0)
_var3013_                           0.142977771529326 	(obj:0)
_var3014_                          0.0217558814421923 	(obj:0)
_var3015_                            0.05090124549203 	(obj:0)
_var3017_                          0.0928537406538473 	(obj:0)
_var3021_                           0.124775248321724 	(obj:0)
_var3022_                           0.240835303501365 	(obj:0)
_var3024_                          0.0360446925296354 	(obj:0)
_var3026_                           0.149352249522068 	(obj:0)
_var3027_                          0.0609587857250386 	(obj:0)
_var3032_                           0.131515071000628 	(obj:0)
_var3033_                           0.179797610099299 	(obj:0)
_var3035_                          0.0769428014347767 	(obj:0)
_var3038_                           0.068067600120503 	(obj:0)
_var3040_                              0.170779601697 	(obj:0)
_var3042_                          0.0485985538042664 	(obj:0)
_var3046_                          0.0551786045685952 	(obj:0)
_var3047_                           0.162761503915856 	(obj:0)
_var3048_                          0.0295169830142817 	(obj:0)
_var3049_                          0.0537999494705738 	(obj:0)
_var3054_                          0.0615968201672899 	(obj:0)
_var3055_                           0.107368861726357 	(obj:0)
_var3056_                          0.0252622474560482 	(obj:0)
_var3058_                            0.13679531288586 	(obj:0)
_var3059_                          0.0932040871331142 	(obj:0)
_var3063_                          0.0657042750451561 	(obj:0)
_var3066_                          0.0899461285736481 	(obj:0)
_var3067_                          0.0357027056469674 	(obj:0)
_var3069_                          0.0085191083125707 	(obj:0)
_var3070_                          0.0460307264274758 	(obj:0)
_var3071_                           0.063203051871335 	(obj:0)
_var3073_                           0.061156395147001 	(obj:0)
_var3074_                           0.172919416427247 	(obj:0)
_var3075_                           0.198012834128781 	(obj:0)
_var3076_                          0.0531734201812853 	(obj:0)
_var3077_                         0.00997090251368613 	(obj:0)
_var3078_                          0.0435819553860231 	(obj:0)
_var3080_                          0.0186068360052414 	(obj:0)
_var3081_                           0.016630092815678 	(obj:0)
_var3083_                          0.0393864748656675 	(obj:0)
_var3086_                          0.0349254898959175 	(obj:0)
_var3088_                           0.113965788022721 	(obj:0)
_var3089_                         0.00426889715175047 	(obj:0)
_var3092_                          0.0944859073809892 	(obj:0)
_var3093_                          0.0224613049662052 	(obj:0)
_var3094_                         0.00131940073530828 	(obj:0)
_var3096_                          0.0171511109094215 	(obj:0)
_var3100_                          0.0197567195527932 	(obj:0)
_var3103_                          0.0225421119881632 	(obj:0)
_var3109_                         0.00332876958860032 	(obj:0)
